Geographic Exponential Decay
20 186 121 197 69 61 5 130 203 263 169 103 47 188 296 74 240 141 226 238 232
p edge 320 717
e 0 38 5.0
e 0 300 6.0
e 0 16 9.0
e 1 62 12.0
e 1 104 10.0
e 1 9 9.0
e 2 259 9.0
e 2 0 8.0
e 2 154 9.0
e 3 278 6.0
e 3 165 19.0
e 3 249 11.0
e 4 121 48.0
e 4 207 1.0
e 5 138 5.0
e 5 203 18.0
e 5 289 51.0
e 5 82 56.0
e 5 259 47.0
e 5 115 81.0
e 5 244 49.0
e 5 190 73.0
e 5 2 88.0
e 5 27 48.0
e 5 151 47.0
e 5 273 64.0
e 5 230 68.0
e 5 28 46.0
e 5 226 100.0
e 5 111 91.0
e 5 313 21.0
e 6 314 8.0
e 7 50 5.0
e 7 164 15.0
e 7 118 3.0
e 7 132 14.0
e 7 268 6.0
e 8 144 1.0
e 8 59 3.0
e 10 166 2.0
e 11 285 12.0
e 11 268 16.0
e 11 107 11.0
e 12 185 11.0
e 12 295 24.0
e 12 296 77.0
e 12 221 6.0
e 12 61 78.0
e 13 122 1.0
e 14 223 9.0
e 14 175 19.0
e 15 269 23.0
e 15 262 22.0
e 15 245 5.0
e 15 19 1.0
e 15 302 10.0
e 17 273 3.0
e 17 213 4.0
e 18 62 2.0
e 18 93 2.0
e 20 95 3.0
e 20 215 22.0
e 21 144 2.0
e 22 26 1.0
e 23 297 10.0
e 23 188 48.0
e 23 50 3.0
e 23 49 1.0
e 23 277 23.0
e 24 231 4.0
e 24 125 6.0
e 24 193 5.0
e 25 171 2.0
e 25 237 47.0
e 25 104 32.0
e 25 278 7.0
e 25 306 38.0
e 25 188 76.0
e 25 231 14.0
e 25 98 14.0
e 25 302 43.0
e 26 118 23.0
e 26 197 48.0
e 26 294 24.0
e 26 284 1.0
e 27 129 5.0
e 28 253 1.0
e 29 4 2.0
e 30 211 3.0
e 30 261 8.0
e 31 190 1.0
e 31 263 90.0
e 31 164 12.0
e 32 78 1.0
e 33 96 1.0
e 34 64 1.0
e 35 63 5.0
e 36 272 3.0
e 36 85 3.0
e 37 224 2.0
e 38 16 6.0
e 39 224 6.0
e 39 43 1.0
e 40 74 18.0
e 40 23 3.0
e 40 55 9.0
e 41 148 1.0
e 42 145 29.0
e 42 119 23.0
e 42 303 28.0
e 42 91 9.0
e 42 285 23.0
e 42 15 13.0
e 42 92 39.0
e 42 316 20.0
e 42 46 27.0
e 44 210 1.0
e 44 75 7.0
e 44 27 7.0
e 45 247 1.0
e 47 63 51.0
e 47 269 50.0
e 47 57 75.0
e 47 112 43.0
e 47 30 4.0
e 47 58 67.0
e 47 4 52.0
e 47 10 52.0
e 47 252 74.0
e 47 233 94.0
e 47 172 5.0
e 47 271 67.0
e 47 245 97.0
e 47 115 23.0
e 47 246 87.0
e 47 266 23.0
e 47 300 87.0
e 48 241 1.0
e 49 113 18.0
e 49 31 4.0
e 49 267 8.0
e 49 167 20.0
e 51 36 4.0
e 52 124 2.0
e 53 264 1.0
e 53 133 1.0
e 54 129 1.0
e 54 160 4.0
e 56 246 1.0
e 60 260 2.0
e 61 252 80.0
e 61 230 78.0
e 61 238 76.0
e 61 206 50.0
e 61 140 68.0
e 61 265 71.0
e 61 99 46.0
e 61 245 84.0
e 61 82 71.0
e 61 189 91.0
e 61 87 32.0
e 61 209 75.0
e 61 25 70.0
e 61 118 2.0
e 61 267 38.0
e 61 147 65.0
e 65 230 6.0
e 65 210 19.0
e 66 48 1.0
e 66 5 71.0
e 66 56 6.0
e 67 87 5.0
e 67 267 1.0
e 68 174 8.0
e 69 199 2.0
e 69 313 54.0
e 69 19 83.0
e 69 274 75.0
e 69 22 37.0
e 69 48 88.0
e 69 175 4.0
e 69 78 88.0
e 69 224 67.0
e 69 99 38.0
e 69 118 3.0
e 69 296 59.0
e 69 145 23.0
e 69 65 47.0
e 69 259 55.0
e 69 272 89.0
e 69 253 57.0
e 70 239 3.0
e 70 317 1.0
e 71 8 8.0
e 71 226 64.0
e 71 141 29.0
e 72 283 20.0
e 72 116 13.0
e 72 306 13.0
e 72 234 14.0
e 72 249 3.0
e 73 20 1.0
e 74 133 76.0
e 74 97 79.0
e 74 86 71.0
e 74 44 92.0
e 74 195 46.0
e 74 162 17.0
e 74 79 5.0
e 74 134 69.0
e 74 279 55.0
e 74 105 14.0
e 74 98 39.0
e 74 61 78.0
e 74 154 76.0
e 74 102 79.0
e 74 109 5.0
e 74 91 34.0
e 75 226 14.0
e 76 37 1.0
e 77 223 14.0
e 77 43 18.0
e 77 185 15.0
e 77 88 16.0
e 77 309 5.0
e 80 135 2.0
e 81 73 1.0
e 81 272 4.0
e 82 80 10.0
e 83 255 15.0
e 83 112 9.0
e 83 46 17.0
e 83 302 7.0
e 83 103 88.0
e 84 7 4.0
e 85 151 17.0
e 86 306 9.0
e 86 55 20.0
e 86 36 3.0
e 86 270 10.0
e 89 195 1.0
e 89 193 7.0
e 89 84 10.0
e 90 108 8.0
e 90 33 27.0
e 90 164 28.0
e 90 121 82.0
e 90 175 38.0
e 90 312 5.0
e 90 109 6.0
e 90 264 50.0
e 90 161 8.0
e 91 0 12.0
e 91 36 10.0
e 91 14 1.0
e 92 223 3.0
e 94 171 6.0
e 100 80 3.0
e 101 168 8.0
e 101 69 3.0
e 101 178 19.0
e 101 244 19.0
e 101 225 25.0
e 102 66 1.0
e 102 148 10.0
e 103 257 4.0
e 103 21 12.0
e 103 60 99.0
e 103 117 68.0
e 103 19 12.0
e 103 96 66.0
e 103 304 79.0
e 103 318 69.0
e 103 307 53.0
e 103 185 68.0
e 103 31 55.0
e 103 144 57.0
e 103 291 63.0
e 103 80 79.0
e 103 82 66.0
e 103 123 82.0
e 106 193 5.0
e 106 148 4.0
e 110 167 4.0
e 112 4 4.0
e 113 58 17.0
e 113 69 73.0
e 113 316 12.0
e 113 54 15.0
e 114 287 12.0
e 114 145 3.0
e 116 311 8.0
e 116 149 3.0
e 117 230 4.0
e 120 26 12.0
e 121 0 92.0
e 121 308 97.0
e 121 8 52.0
e 121 32 40.0
e 121 139 86.0
e 121 281 5.0
e 121 314 37.0
e 121 71 33.0
e 121 23 5.0
e 121 73 57.0
e 121 81 74.0
e 121 239 12.0
e 121 127 44.0
e 121 251 61.0
e 121 246 75.0
e 124 141 8.0
e 126 74 84.0
e 126 91 4.0
e 126 90 14.0
e 126 31 17.0
e 126 97 14.0
e 128 129 3.0
e 130 251 73.0
e 130 107 61.0
e 130 27 52.0
e 130 313 22.0
e 130 207 98.0
e 130 83 13.0
e 130 14 61.0
e 130 264 15.0
e 130 76 51.0
e 130 33 81.0
e 130 252 90.0
e 130 15 99.0
e 130 47 9.0
e 130 24 72.0
e 130 113 22.0
e 130 219 14.0
e 130 227 3.0
e 131 169 57.0
e 132 302 4.0
e 132 37 1.0
e 134 176 2.0
e 135 37 5.0
e 136 15 18.0
e 136 54 1.0
e 137 248 6.0
e 137 269 2.0
e 138 217 23.0
e 138 34 17.0
e 138 55 9.0
e 138 204 23.0
e 140 131 5.0
e 140 62 7.0
e 141 109 76.0
e 141 112 69.0
e 141 291 72.0
e 141 58 68.0
e 141 272 14.0
e 141 146 54.0
e 141 81 93.0
e 141 199 17.0
e 141 94 60.0
e 141 62 21.0
e 141 143 19.0
e 141 195 84.0
e 141 156 34.0
e 141 65 43.0
e 141 215 94.0
e 142 147 1.0
e 143 155 1.0
e 146 226 35.0
e 149 52 1.0
e 149 281 4.0
e 150 290 12.0
e 150 184 24.0
e 150 129 13.0
e 150 261 13.0
e 150 105 8.0
e 151 172 2.0
e 151 3 21.0
e 151 253 22.0
e 152 288 1.0
e 153 307 3.0
e 153 261 11.0
e 155 253 3.0
e 157 172 2.0
e 157 279 1.0
e 158 53 5.0
e 158 48 3.0
e 159 35 1.0
e 161 69 29.0
e 162 38 4.0
e 162 102 10.0
e 163 9 6.0
e 163 261 5.0
e 165 141 40.0
e 165 140 10.0
e 165 57 1.0
e 165 257 17.0
e 166 108 5.0
e 166 236 1.0
e 167 268 22.0
e 168 7 1.0
e 169 273 39.0
e 169 186 37.0
e 169 81 31.0
e 169 184 40.0
e 169 166 72.0
e 169 68 45.0
e 169 17 38.0
e 169 8 21.0
e 169 140 6.0
e 169 73 37.0
e 169 170 64.0
e 169 179 37.0
e 169 281 2.0
e 169 310 98.0
e 169 52 6.0
e 169 6 18.0
e 171 235 4.0
e 173 246 5.0
e 173 32 2.0
e 173 277 1.0
e 174 122 10.0
e 174 5 52.0
e 175 30 25.0
e 175 111 6.0
e 177 52 1.0
e 179 129 4.0
e 180 181 8.0
e 180 241 3.0
e 180 313 12.0
e 181 124 11.0
e 181 56 8.0
e 182 303 11.0
e 182 62 4.0
e 183 308 1.0
e 186 265 68.0
e 186 20 40.0
e 186 181 77.0
e 186 304 72.0
e 186 63 25.0
e 186 187 73.0
e 186 70 36.0
e 186 120 6.0
e 186 254 48.0
e 186 51 62.0
e 186 155 3.0
e 186 255 1.0
e 186 167 44.0
e 186 17 58.0
e 186 137 96.0
e 186 147 9.0
e 187 113 20.0
e 188 200 63.0
e 188 184 72.0
e 188 213 98.0
e 188 165 25.0
e 188 173 39.0
e 188 50 55.0
e 188 283 75.0
e 188 32 42.0
e 188 55 16.0
e 188 279 65.0
e 188 135 97.0
e 188 75 91.0
e 188 85 77.0
e 188 189 93.0
e 188 89 14.0
e 191 78 5.0
e 191 298 1.0
e 192 290 4.0
e 192 82 10.0
e 194 11 9.0
e 194 186 14.0
e 194 198 3.0
e 196 16 2.0
e 197 257 11.0
e 197 22 48.0
e 197 82 74.0
e 197 83 53.0
e 197 151 95.0
e 197 297 12.0
e 197 119 73.0
e 197 127 84.0
e 197 242 11.0
e 197 126 26.0
e 197 5 96.0
e 197 254 21.0
e 197 157 54.0
e 197 114 80.0
e 197 118 34.0
e 197 29 63.0
e 198 186 50.0
e 198 141 50.0
e 201 44 9.0
e 201 298 3.0
e 202 224 3.0
e 202 217 2.0
e 202 9 1.0
e 203 287 91.0
e 203 120 82.0
e 203 256 34.0
e 203 66 76.0
e 203 164 50.0
e 203 162 43.0
e 203 314 35.0
e 203 179 16.0
e 203 227 96.0
e 203 101 97.0
e 203 173 85.0
e 203 65 41.0
e 203 170 27.0
e 203 318 65.0
e 203 191 4.0
e 203 132 31.0
e 205 153 1.0
e 205 93 24.0
e 205 142 24.0
e 205 137 17.0
e 205 278 20.0
e 206 207 5.0
e 208 121 2.0
e 209 79 2.0
e 210 217 7.0
e 210 204 19.0
e 210 49 1.0
e 212 225 1.0
e 212 7 20.0
e 214 221 4.0
e 214 250 8.0
e 214 219 6.0
e 215 172 17.0
e 215 74 95.0
e 215 89 15.0
e 216 229 8.0
e 216 165 20.0
e 216 187 16.0
e 216 38 17.0
e 216 217 21.0
e 218 66 1.0
e 220 264 1.0
e 220 57 5.0
e 220 154 5.0
e 222 152 3.0
e 222 235 4.0
e 226 186 19.0
e 226 157 64.0
e 226 142 51.0
e 226 252 16.0
e 226 184 90.0
e 226 141 55.0
e 226 90 73.0
e 226 299 17.0
e 226 169 68.0
e 226 76 92.0
e 226 294 85.0
e 226 166 58.0
e 226 215 17.0
e 228 176 2.0
e 228 281 6.0
e 232 212 25.0
e 232 273 42.0
e 232 260 44.0
e 232 202 21.0
e 232 93 1.0
e 232 67 20.0
e 232 113 7.0
e 232 9 38.0
e 232 254 43.0
e 232 58 82.0
e 232 218 50.0
e 232 84 86.0
e 232 70 71.0
e 232 222 16.0
e 232 178 29.0
e 232 83 9.0
e 232 144 58.0
e 233 305 19.0
e 233 126 37.0
e 233 26 11.0
e 233 11 42.0
e 233 129 24.0
e 233 207 31.0
e 233 72 46.0
e 233 101 7.0
e 234 259 2.0
e 234 254 8.0
e 236 149 1.0
e 237 133 2.0
e 238 199 31.0
e 238 115 47.0
e 238 44 7.0
e 238 89 23.0
e 238 214 19.0
e 238 269 46.0
e 238 88 55.0
e 238 274 76.0
e 238 124 88.0
e 238 303 55.0
e 238 116 58.0
e 238 280 31.0
e 238 63 62.0
e 238 159 1.0
e 238 178 75.0
e 238 74 14.0
e 239 13 9.0
e 240 151 65.0
e 240 248 35.0
e 240 218 63.0
e 240 303 98.0
e 240 233 89.0
e 240 92 26.0
e 240 243 62.0
e 240 265 17.0
e 240 60 80.0
e 240 171 26.0
e 240 134 43.0
e 240 75 76.0
e 240 40 9.0
e 240 210 4.0
e 240 269 12.0
e 240 223 40.0
e 240 147 85.0
e 242 241 6.0
e 243 94 1.0
e 244 158 3.0
e 247 13 1.0
e 247 14 3.0
e 250 61 68.0
e 251 111 8.0
e 255 287 5.0
e 256 235 19.0
e 256 286 21.0
e 256 204 2.0
e 256 117 21.0
e 258 63 4.0
e 262 56 12.0
e 262 277 16.0
e 263 290 44.0
e 263 75 42.0
e 263 236 23.0
e 263 298 65.0
e 263 119 65.0
e 263 267 11.0
e 263 29 60.0
e 263 315 72.0
e 263 88 84.0
e 263 50 48.0
e 263 311 30.0
e 263 284 54.0
e 263 133 77.0
e 263 259 2.0
e 263 162 2.0
e 263 222 51.0
e 266 158 6.0
e 268 271 10.0
e 268 251 17.0
e 270 127 2.0
e 270 262 3.0
e 274 3 24.0
e 274 105 7.0
e 274 265 14.0
e 275 232 18.0
e 275 150 1.0
e 275 35 28.0
e 275 16 48.0
e 275 13 15.0
e 275 245 9.0
e 275 136 45.0
e 275 33 5.0
e 275 309 12.0
e 276 67 3.0
e 277 64 15.0
e 277 126 22.0
e 282 239 12.0
e 282 6 4.0
e 282 161 2.0
e 283 2 9.0
e 283 172 2.0
e 283 260 11.0
e 285 181 4.0
e 286 29 1.0
e 286 49 8.0
e 288 225 1.0
e 289 68 1.0
e 292 293 4.0
e 293 23 13.0
e 293 313 11.0
e 296 19 78.0
e 296 244 79.0
e 296 270 94.0
e 296 307 56.0
e 296 316 99.0
e 296 120 2.0
e 296 6 37.0
e 296 133 15.0
e 296 235 37.0
e 296 67 87.0
e 296 199 70.0
e 296 59 78.0
e 296 177 28.0
e 296 134 41.0
e 296 137 38.0
e 297 259 9.0
e 297 229 13.0
e 297 84 22.0
e 299 85 1.0
e 301 212 2.0
e 301 279 1.0
e 303 201 15.0
e 305 117 5.0
e 311 222 1.0
e 315 266 2.0
e 317 232 87.0
e 318 294 9.0
e 319 318 7.0
e 319 97 4.0
e 319 121 8.0
e 319 42 35.0
e 319 49 19.0
